<number of tasks>
28

<cycle time>
324

<task times>
1 70
2 59
3 33
4 6
5 1
6 27
7 17
8 62
9 31
10 53
11 21
12 19
13 108
14 52
15 5
16 8
17 97
18 8
19 47
20 67
21 17
22 8
23 3
24 21
25 107
26 3
27 2
28 72

<precedence relations>
1,2
1,3
1,4
1,5
1,8
1,19
1,21
1,22
1,23
1,24
1,26
2,6
2,17
3,28
4,28
5,28
6,7
7,18
8,9
9,10
10,11
10,12
11,15
12,13
13,14
13,16
14,28
15,28
16,28
17,28
18,28
19,20
20,28
21,28
22,28
23,28
24,25
25,28
26,27
27,28

<setup times forward>
1,3:7
1,4:7
1,22:3
1,23:3
1,24:7
1,26:7
2,3:7
2,4:7
2,6:7
2,9:7
2,10:7
2,11:7
2,12:7
2,13:7
2,14:3
2,15:3
2,16:3
2,17:3
2,22:3
2,23:3
2,24:7
2,25:3
2,26:7
2,27:3
3,2:7
3,5:7
3,7:4
3,8:7
3,14:10
3,15:4
3,16:4
3,17:4
3,18:4
3,19:7
3,20:7
3,21:7
3,22:4
3,23:10
3,25:4
3,27:4
3,28:4
4,2:7
4,5:7
4,7:4
4,8:7
4,14:10
4,15:4
4,16:4
4,17:4
4,18:4
4,19:7
4,20:7
4,21:7
4,22:4
4,23:10
4,25:4
4,27:4
4,28:4
5,3:7
5,4:7
5,6:7
5,7:3
5,9:7
5,10:7
5,11:7
5,12:7
5,13:7
5,14:3
5,15:3
5,16:3
5,17:3
5,18:3
5,22:3
5,23:3
5,24:7
5,25:3
5,26:7
5,27:3
5,28:3
6,5:7
6,7:4
6,8:7
6,14:10
6,15:4
6,16:4
6,17:4
6,19:7
6,20:7
6,21:7
6,22:4
6,23:10
6,25:4
6,27:4
7,3:4
7,4:4
7,5:3
7,8:3
7,9:4
7,10:4
7,11:4
7,12:4
7,13:4
7,14:6
7,19:3
7,20:3
7,21:3
7,23:6
7,24:4
7,26:4
8,3:7
8,4:7
8,6:7
8,7:3
8,9:7
8,17:3
8,18:3
8,22:3
8,23:3
8,24:7
8,25:3
8,26:7
8,27:3
9,2:7
9,5:7
9,7:4
9,17:4
9,18:4
9,19:7
9,20:7
9,21:7
9,22:4
9,23:10
9,25:4
9,27:4
10,2:7
10,5:7
10,7:4
10,17:4
10,18:4
10,19:7
10,20:7
10,21:7
10,22:4
10,23:10
10,25:4
10,27:4
11,2:7
11,5:7
11,7:4
11,14:10
11,15:4
11,16:4
11,17:4
11,18:4
11,19:7
11,20:7
11,21:7
11,22:4
11,23:10
11,25:4
11,27:4
12,2:7
12,5:7
12,7:4
12,15:4
12,17:4
12,18:4
12,19:7
12,20:7
12,21:7
12,22:4
12,23:10
12,25:4
12,27:4
13,2:7
13,5:7
13,7:4
13,14:10
13,15:4
13,16:4
13,17:4
13,18:4
13,19:7
13,20:7
13,21:7
13,22:4
13,23:10
13,25:4
13,27:4
14,2:3
14,3:10
14,4:10
14,5:3
14,6:10
14,7:6
14,11:10
14,15:6
14,16:6
14,17:6
14,18:6
14,19:3
14,20:3
14,21:3
14,22:6
14,24:10
14,25:6
14,26:10
14,27:6
14,28:6
15,2:3
15,3:4
15,4:4
15,5:3
15,6:4
15,12:4
15,13:4
15,14:6
15,19:3
15,20:3
15,21:3
15,23:6
15,24:4
15,26:4
16,2:3
16,3:4
16,4:4
16,5:3
16,6:4
16,11:4
16,14:6
16,19:3
16,20:3
16,21:3
16,23:6
16,24:4
16,26:4
17,3:4
17,4:4
17,5:3
17,6:4
17,8:3
17,9:4
17,10:4
17,11:4
17,12:4
17,13:4
17,14:6
17,19:3
17,20:3
17,21:3
17,23:6
17,24:4
17,26:4
18,3:4
18,4:4
18,5:3
18,8:3
18,9:4
18,10:4
18,11:4
18,12:4
18,13:4
18,14:6
18,19:3
18,20:3
18,21:3
18,23:6
18,24:4
18,26:4
19,3:7
19,4:7
19,6:7
19,7:3
19,9:7
19,10:7
19,11:7
19,12:7
19,13:7
19,14:3
19,15:3
19,16:3
19,17:3
19,18:3
19,22:3
19,23:3
19,24:7
19,25:3
19,26:7
19,27:3
20,3:7
20,4:7
20,6:7
20,7:3
20,9:7
20,10:7
20,11:7
20,12:7
20,13:7
20,14:3
20,15:3
20,16:3
20,17:3
20,18:3
20,22:3
20,23:3
20,24:7
20,25:3
20,26:7
20,27:3
20,28:3
21,3:7
21,4:7
21,6:7
21,7:3
21,9:7
21,10:7
21,11:7
21,12:7
21,13:7
21,14:3
21,15:3
21,16:3
21,17:3
21,18:3
21,22:3
21,23:3
21,24:7
21,25:3
21,26:7
21,27:3
21,28:3
22,2:3
22,3:4
22,4:4
22,5:3
22,6:4
22,8:3
22,9:4
22,10:4
22,11:4
22,12:4
22,13:4
22,14:6
22,19:3
22,20:3
22,21:3
22,23:6
22,24:4
22,26:4
23,2:3
23,3:10
23,4:10
23,5:3
23,6:10
23,7:6
23,8:3
23,9:10
23,10:10
23,11:10
23,12:10
23,13:10
23,15:6
23,16:6
23,17:6
23,18:6
23,19:3
23,20:3
23,21:3
23,22:6
23,24:10
23,25:6
23,26:10
23,27:6
23,28:6
24,2:7
24,5:7
24,7:4
24,8:7
24,14:10
24,15:4
24,16:4
24,17:4
24,18:4
24,19:7
24,20:7
24,21:7
24,22:4
24,23:10
24,25:4
24,27:4
25,2:3
25,3:4
25,4:4
25,5:3
25,6:4
25,8:3
25,9:4
25,10:4
25,11:4
25,12:4
25,13:4
25,14:6
25,19:3
25,20:3
25,21:3
25,23:6
25,26:4
26,2:7
26,5:7
26,7:4
26,8:7
26,14:10
26,15:4
26,16:4
26,17:4
26,18:4
26,19:7
26,20:7
26,21:7
26,22:4
26,23:10
26,25:4
26,27:4
27,2:3
27,3:4
27,4:4
27,5:3
27,6:4
27,8:3
27,9:4
27,10:4
27,11:4
27,12:4
27,13:4
27,14:6
27,19:3
27,20:3
27,21:3
27,23:6
27,24:4

<setup times backward>
2,14:3
2,23:3
3,1:7
3,2:7
3,5:7
3,7:4
3,8:7
3,14:10
3,15:4
3,16:4
3,17:4
3,18:4
3,19:7
3,20:7
3,21:7
3,22:4
3,23:10
3,25:4
3,27:4
4,1:7
4,2:7
4,5:7
4,7:4
4,8:7
4,14:10
4,15:4
4,16:4
4,17:4
4,18:4
4,19:7
4,20:7
4,21:7
4,22:4
4,23:10
4,25:4
4,27:4
5,14:3
5,23:3
6,1:7
6,2:7
6,5:7
6,8:7
6,14:10
6,15:4
6,16:4
6,17:4
6,19:7
6,20:7
6,21:7
6,22:4
6,23:10
6,25:4
6,27:4
7,1:3
7,2:3
7,5:3
7,8:3
7,14:6
7,19:3
7,20:3
7,21:3
7,23:6
8,23:3
9,1:7
9,2:7
9,5:7
9,7:4
9,8:7
9,17:4
9,18:4
9,19:7
9,20:7
9,21:7
9,22:4
9,23:10
9,25:4
9,27:4
10,1:7
10,2:7
10,5:7
10,7:4
10,8:7
10,17:4
10,18:4
10,19:7
10,20:7
10,21:7
10,22:4
10,23:10
10,25:4
10,27:4
11,1:7
11,2:7
11,5:7
11,7:4
11,8:7
11,14:10
11,16:4
11,17:4
11,18:4
11,19:7
11,20:7
11,21:7
11,22:4
11,23:10
11,25:4
11,27:4
12,1:7
12,2:7
12,5:7
12,7:4
12,8:7
12,15:4
12,17:4
12,18:4
12,19:7
12,20:7
12,21:7
12,22:4
12,23:10
12,25:4
12,27:4
13,1:7
13,2:7
13,5:7
13,7:4
13,8:7
13,15:4
13,17:4
13,18:4
13,19:7
13,20:7
13,21:7
13,22:4
13,23:10
13,25:4
13,27:4
15,1:3
15,2:3
15,5:3
15,8:3
15,14:6
15,19:3
15,20:3
15,21:3
15,23:6
16,1:3
16,2:3
16,5:3
16,8:3
16,14:6
16,19:3
16,20:3
16,21:3
16,23:6
17,1:3
17,2:3
17,5:3
17,8:3
17,14:6
17,19:3
17,20:3
17,21:3
17,23:6
18,1:3
18,2:3
18,5:3
18,8:3
18,14:6
18,19:3
18,20:3
18,21:3
18,23:6
19,14:3
19,23:3
20,14:3
20,23:3
21,14:3
21,23:3
22,1:3
22,2:3
22,5:3
22,8:3
22,14:6
22,19:3
22,20:3
22,21:3
22,23:6
24,1:7
24,2:7
24,5:7
24,7:4
24,8:7
24,14:10
24,15:4
24,16:4
24,17:4
24,18:4
24,19:7
24,20:7
24,21:7
24,22:4
24,23:10
24,27:4
25,1:3
25,2:3
25,5:3
25,8:3
25,14:6
25,19:3
25,20:3
25,21:3
25,23:6
26,1:7
26,2:7
26,5:7
26,7:4
26,8:7
26,14:10
26,15:4
26,16:4
26,17:4
26,18:4
26,19:7
26,20:7
26,21:7
26,22:4
26,23:10
26,25:4
27,1:3
27,2:3
27,5:3
27,8:3
27,14:6
27,19:3
27,20:3
27,21:3
27,23:6
28,1:3
28,2:3
28,5:3
28,8:3
28,14:6
28,19:3
28,20:3
28,21:3
28,23:6

<end>

<optimal SALBP-1 value>
4


<rand seed>
467321153

